(set-info :smt-lib-version 2.6)
(set-logic QF_FP)
(set-info :source |
Generated by: Chenqi Cui
Generated on: 2025-11-26
Generator: AutoSMTGen
Application: Generating SMT constraints with small solution spaces to make them challenging for SMT solvers
Target solver: Z3, CVC5, Bitwuzla
|)
(set-info :license "https://creativecommons.org/licenses/by/4.0/")
(set-info :category "industrial")
(set-info :status sat)
; benchmark generated from python API

(declare-fun x8 () (_ FloatingPoint 11 53))
(declare-fun x7 () (_ FloatingPoint 11 53))
(declare-fun x6 () (_ FloatingPoint 11 53))
(declare-fun x5 () (_ FloatingPoint 11 53))
(declare-fun x4 () (_ FloatingPoint 11 53))
(declare-fun x3 () (_ FloatingPoint 11 53))
(declare-fun x2 () (_ FloatingPoint 11 53))
(declare-fun x1 () (_ FloatingPoint 11 53))
(declare-fun x0 () (_ FloatingPoint 11 53))
(assert
 (let ((?x19 (fp.add roundNearestTiesToEven (fp.mul roundNearestTiesToEven (fp #b0 #b10000000100 #x0a42b620b98e0) x0) (fp.mul roundNearestTiesToEven (fp #b1 #b10000000100 #x31b8529e7b3ac) x1))))
 (let ((?x22 (fp.add roundNearestTiesToEven ?x19 (fp.mul roundNearestTiesToEven (fp #b0 #b10000000100 #x1c3fd66b6d910) x2))))
 (let ((?x25 (fp.add roundNearestTiesToEven ?x22 (fp.mul roundNearestTiesToEven (fp #b0 #b10000000101 #x5cef8a81f7e63) x3))))
 (let ((?x28 (fp.add roundNearestTiesToEven ?x25 (fp.mul roundNearestTiesToEven (fp #b1 #b10000000101 #x49d7f1075912b) x4))))
 (let ((?x31 (fp.add roundNearestTiesToEven ?x28 (fp.mul roundNearestTiesToEven (fp #b1 #b10000000011 #x450eb42cdf4ff) x5))))
 (let ((?x34 (fp.add roundNearestTiesToEven ?x31 (fp.mul roundNearestTiesToEven (fp #b0 #b10000000101 #x55ba6a4ffd102) x6))))
 (let ((?x37 (fp.add roundNearestTiesToEven ?x34 (fp.mul roundNearestTiesToEven (fp #b1 #b10000000011 #x8df70ed8e9da1) x7))))
 (let ((?x40 (fp.add roundNearestTiesToEven ?x37 (fp.mul roundNearestTiesToEven (fp #b1 #b10000000100 #x754d693f45d7f) x8))))
 (fp.leq ?x40 (fp #b1 #b10000000100 #x687a8ae9187bc)))))))))))
(assert
 (let ((?x64 (fp.add roundNearestTiesToEven (fp.mul roundNearestTiesToEven (fp #b0 #b10000000101 #x5f92cbee18725) x0) (fp.mul roundNearestTiesToEven (fp #b0 #b10000000100 #xfa895022f7506) x1))))
 (let ((?x67 (fp.add roundNearestTiesToEven ?x64 (fp.mul roundNearestTiesToEven (fp #b0 #b01111111111 #xc3ebfaf2de8d7) x2))))
 (let ((?x70 (fp.add roundNearestTiesToEven ?x67 (fp.mul roundNearestTiesToEven (fp #b1 #b10000000010 #xfe142835a8106) x3))))
 (let ((?x73 (fp.add roundNearestTiesToEven ?x70 (fp.mul roundNearestTiesToEven (fp #b1 #b10000000101 #x65e2c3d0aad83) x4))))
 (let ((?x76 (fp.add roundNearestTiesToEven ?x73 (fp.mul roundNearestTiesToEven (fp #b0 #b10000000101 #x756d6848f8d37) x5))))
 (let ((?x79 (fp.add roundNearestTiesToEven ?x76 (fp.mul roundNearestTiesToEven (fp #b1 #b10000000101 #x893f6afc6106b) x6))))
 (let ((?x82 (fp.add roundNearestTiesToEven ?x79 (fp.mul roundNearestTiesToEven (fp #b0 #b10000000100 #xa1b218a9e8555) x7))))
 (let ((?x85 (fp.add roundNearestTiesToEven ?x82 (fp.mul roundNearestTiesToEven (fp #b0 #b10000000010 #xa914520ac0d2d) x8))))
 (fp.leq ?x85 (fp #b0 #b10000000100 #x980c9cde687b2)))))))))))
(assert
 (let ((?x92 (fp.add roundNearestTiesToEven (fp.mul roundNearestTiesToEven (fp #b1 #b10000000001 #xdccb8e6689a7d) x0) (fp.mul roundNearestTiesToEven (fp #b0 #b10000000100 #xca9fc525d06a8) x1))))
 (let ((?x95 (fp.add roundNearestTiesToEven ?x92 (fp.mul roundNearestTiesToEven (fp #b1 #b10000000100 #xedbe5d735bc4f) x2))))
 (let ((?x98 (fp.add roundNearestTiesToEven ?x95 (fp.mul roundNearestTiesToEven (fp #b0 #b10000000100 #x14c35c6e5c2ed) x3))))
 (let ((?x101 (fp.add roundNearestTiesToEven ?x98 (fp.mul roundNearestTiesToEven (fp #b0 #b10000000101 #x76900a693e749) x4))))
 (let ((?x104 (fp.add roundNearestTiesToEven ?x101 (fp.mul roundNearestTiesToEven (fp #b1 #b10000000001 #x038f598a590b5) x5))))
 (let ((?x107 (fp.add roundNearestTiesToEven ?x104 (fp.mul roundNearestTiesToEven (fp #b1 #b10000000100 #x852cb8587c8aa) x6))))
 (let ((?x110 (fp.add roundNearestTiesToEven ?x107 (fp.mul roundNearestTiesToEven (fp #b0 #b10000000101 #x23b99567efef4) x7))))
 (let ((?x113 (fp.add roundNearestTiesToEven ?x110 (fp.mul roundNearestTiesToEven (fp #b0 #b10000000010 #x1ca429c50de31) x8))))
 (fp.leq ?x113 (fp #b0 #b10000000100 #x7a19caa836228)))))))))))
(assert
 (let ((?x120 (fp.add roundNearestTiesToEven (fp.mul roundNearestTiesToEven (fp #b1 #b10000000101 #x546d4767d4082) x0) (fp.mul roundNearestTiesToEven (fp #b0 #b10000000101 #x30c0d69583f68) x1))))
 (let ((?x123 (fp.add roundNearestTiesToEven ?x120 (fp.mul roundNearestTiesToEven (fp #b1 #b10000000100 #x93f05a23e149d) x2))))
 (let ((?x126 (fp.add roundNearestTiesToEven ?x123 (fp.mul roundNearestTiesToEven (fp #b1 #b10000000101 #x96d4d4b3c9b6c) x3))))
 (let ((?x129 (fp.add roundNearestTiesToEven ?x126 (fp.mul roundNearestTiesToEven (fp #b0 #b10000000010 #x654c22c5b35f1) x4))))
 (let ((?x132 (fp.add roundNearestTiesToEven ?x129 (fp.mul roundNearestTiesToEven (fp #b1 #b10000000101 #x3c1e854ec5df7) x5))))
 (let ((?x135 (fp.add roundNearestTiesToEven ?x132 (fp.mul roundNearestTiesToEven (fp #b1 #b10000000100 #x214329663707b) x6))))
 (let ((?x138 (fp.add roundNearestTiesToEven ?x135 (fp.mul roundNearestTiesToEven (fp #b1 #b10000000100 #xd8e4ad801e4b3) x7))))
 (let ((?x141 (fp.add roundNearestTiesToEven ?x138 (fp.mul roundNearestTiesToEven (fp #b1 #b10000000010 #xd1da824170752) x8))))
 (fp.leq ?x141 (fp #b0 #b10000000101 #x164a021107667)))))))))))
(assert
 (let ((?x148 (fp.add roundNearestTiesToEven (fp.mul roundNearestTiesToEven (fp #b0 #b10000000100 #xe0d9ee70e4438) x0) (fp.mul roundNearestTiesToEven (fp #b1 #b10000000101 #x273c217e2cbf1) x1))))
 (let ((?x151 (fp.add roundNearestTiesToEven ?x148 (fp.mul roundNearestTiesToEven (fp #b1 #b10000000100 #x023f019f2ec52) x2))))
 (let ((?x154 (fp.add roundNearestTiesToEven ?x151 (fp.mul roundNearestTiesToEven (fp #b1 #b10000000010 #x1db3fb2ed2cae) x3))))
 (let ((?x157 (fp.add roundNearestTiesToEven ?x154 (fp.mul roundNearestTiesToEven (fp #b0 #b10000000011 #xdfd8bf0319a21) x4))))
 (let ((?x160 (fp.add roundNearestTiesToEven ?x157 (fp.mul roundNearestTiesToEven (fp #b1 #b10000000100 #xaf959a5c565a0) x5))))
 (let ((?x163 (fp.add roundNearestTiesToEven ?x160 (fp.mul roundNearestTiesToEven (fp #b0 #b10000000101 #x5b3f1f4c4a8d0) x6))))
 (let ((?x166 (fp.add roundNearestTiesToEven ?x163 (fp.mul roundNearestTiesToEven (fp #b1 #b10000000100 #x0e4af29fd3b74) x7))))
 (let ((?x169 (fp.add roundNearestTiesToEven ?x166 (fp.mul roundNearestTiesToEven (fp #b0 #b10000000100 #xdc92583fc022a) x8))))
 (fp.leq ?x169 (fp #b1 #b10000000100 #xd0dc33f1b6122)))))))))))
(assert
 (let ((?x176 (fp.add roundNearestTiesToEven (fp.mul roundNearestTiesToEven (fp #b0 #b10000000010 #x4bc69821f4da2) x0) (fp.mul roundNearestTiesToEven (fp #b1 #b10000000101 #x7b88f4f8e60d7) x1))))
 (let ((?x179 (fp.add roundNearestTiesToEven ?x176 (fp.mul roundNearestTiesToEven (fp #b0 #b10000000100 #x80471916c88e6) x2))))
 (let ((?x182 (fp.add roundNearestTiesToEven ?x179 (fp.mul roundNearestTiesToEven (fp #b1 #b10000000001 #xdf55c44193d20) x3))))
 (let ((?x185 (fp.add roundNearestTiesToEven ?x182 (fp.mul roundNearestTiesToEven (fp #b1 #b10000000011 #x8c98493f712cc) x4))))
 (let ((?x188 (fp.add roundNearestTiesToEven ?x185 (fp.mul roundNearestTiesToEven (fp #b1 #b10000000101 #x203d345053aff) x5))))
 (let ((?x191 (fp.add roundNearestTiesToEven ?x188 (fp.mul roundNearestTiesToEven (fp #b0 #b10000000001 #xb3c86b99a60aa) x6))))
 (let ((?x194 (fp.add roundNearestTiesToEven ?x191 (fp.mul roundNearestTiesToEven (fp #b1 #b10000000101 #x2b70ea0bdfd5c) x7))))
 (let ((?x197 (fp.add roundNearestTiesToEven ?x194 (fp.mul roundNearestTiesToEven (fp #b0 #b10000000100 #xe00deb331ba73) x8))))
 (fp.leq ?x197 (fp #b0 #b10000000011 #xeab5a26e6eeba)))))))))))
(assert
 (let ((?x204 (fp.add roundNearestTiesToEven (fp.mul roundNearestTiesToEven (fp #b1 #b10000000100 #x862702a9b3843) x0) (fp.mul roundNearestTiesToEven (fp #b1 #b10000000101 #x9e997191b8827) x1))))
 (let ((?x207 (fp.add roundNearestTiesToEven ?x204 (fp.mul roundNearestTiesToEven (fp #b0 #b10000000010 #xc7e73f6e7d097) x2))))
 (let ((?x210 (fp.add roundNearestTiesToEven ?x207 (fp.mul roundNearestTiesToEven (fp #b1 #b10000000100 #xd1f54d71cb8cb) x3))))
 (let ((?x213 (fp.add roundNearestTiesToEven ?x210 (fp.mul roundNearestTiesToEven (fp #b1 #b10000000101 #x10e1d20131324) x4))))
 (let ((?x216 (fp.add roundNearestTiesToEven ?x213 (fp.mul roundNearestTiesToEven (fp #b0 #b10000000100 #x5d2baf230e1a1) x5))))
 (let ((?x219 (fp.add roundNearestTiesToEven ?x216 (fp.mul roundNearestTiesToEven (fp #b0 #b10000000010 #xaddc61350f205) x6))))
 (let ((?x222 (fp.add roundNearestTiesToEven ?x219 (fp.mul roundNearestTiesToEven (fp #b1 #b10000000100 #x037aff1aefdd3) x7))))
 (let ((?x225 (fp.add roundNearestTiesToEven ?x222 (fp.mul roundNearestTiesToEven (fp #b0 #b10000000100 #x3a9e3da8f7370) x8))))
 (fp.leq ?x225 (fp #b1 #b10000000010 #x76b92c133927f)))))))))))
(assert
 (let ((?x232 (fp.add roundNearestTiesToEven (fp.mul roundNearestTiesToEven (fp #b0 #b10000000100 #x5dcd1febb24e2) x0) (fp.mul roundNearestTiesToEven (fp #b0 #b10000000101 #x1a65df1a2cd45) x1))))
 (let ((?x235 (fp.add roundNearestTiesToEven ?x232 (fp.mul roundNearestTiesToEven (fp #b0 #b10000000101 #x6d4951e271689) x2))))
 (let ((?x238 (fp.add roundNearestTiesToEven ?x235 (fp.mul roundNearestTiesToEven (fp #b0 #b10000000101 #x76f2439590bdd) x3))))
 (let ((?x241 (fp.add roundNearestTiesToEven ?x238 (fp.mul roundNearestTiesToEven (fp #b0 #b10000000101 #x62c3fd0777f22) x4))))
 (let ((?x244 (fp.add roundNearestTiesToEven ?x241 (fp.mul roundNearestTiesToEven (fp #b0 #b01111111111 #x22de0fb151e0b) x5))))
 (let ((?x247 (fp.add roundNearestTiesToEven ?x244 (fp.mul roundNearestTiesToEven (fp #b0 #b10000000100 #x30ed6057d2e96) x6))))
 (let ((?x250 (fp.add roundNearestTiesToEven ?x247 (fp.mul roundNearestTiesToEven (fp #b0 #b10000000100 #x71cabdea96de5) x7))))
 (let ((?x253 (fp.add roundNearestTiesToEven ?x250 (fp.mul roundNearestTiesToEven (fp #b0 #b10000000100 #x12506c5979b10) x8))))
 (fp.leq ?x253 (fp #b1 #b10000000101 #x53d28db137527)))))))))))
(assert
 (let ((?x260 (fp.add roundNearestTiesToEven (fp.mul roundNearestTiesToEven (fp #b0 #b10000000011 #x2259f44384c5e) x0) (fp.mul roundNearestTiesToEven (fp #b0 #b10000000100 #xa4eb6252f2909) x1))))
 (let ((?x263 (fp.add roundNearestTiesToEven ?x260 (fp.mul roundNearestTiesToEven (fp #b0 #b10000000001 #xf905bf5e33f20) x2))))
 (let ((?x266 (fp.add roundNearestTiesToEven ?x263 (fp.mul roundNearestTiesToEven (fp #b0 #b10000000101 #x0834a070bfa8f) x3))))
 (let ((?x269 (fp.add roundNearestTiesToEven ?x266 (fp.mul roundNearestTiesToEven (fp #b1 #b10000000010 #x253c7ebbb5b0c) x4))))
 (let ((?x272 (fp.add roundNearestTiesToEven ?x269 (fp.mul roundNearestTiesToEven (fp #b0 #b10000000101 #x4b8eee607b54d) x5))))
 (let ((?x275 (fp.add roundNearestTiesToEven ?x272 (fp.mul roundNearestTiesToEven (fp #b1 #b10000000101 #x6f45f926991ca) x6))))
 (let ((?x278 (fp.add roundNearestTiesToEven ?x275 (fp.mul roundNearestTiesToEven (fp #b1 #b10000000100 #xfb0980f97d073) x7))))
 (let ((?x281 (fp.add roundNearestTiesToEven ?x278 (fp.mul roundNearestTiesToEven (fp #b1 #b10000000101 #x21936cb4ac534) x8))))
 (fp.leq ?x281 (fp #b1 #b10000000101 #x9155c7271db74)))))))))))
(assert
 (let ((?x288 (fp.add roundNearestTiesToEven (fp.mul roundNearestTiesToEven (fp #b1 #b10000000100 #xd7269f2dcca62) x0) (fp.mul roundNearestTiesToEven (fp #b0 #b10000000100 #x2ec5889e5e4d9) x1))))
(let ((?x291 (fp.add roundNearestTiesToEven ?x288 (fp.mul roundNearestTiesToEven (fp #b1 #b10000000100 #xef2308f6af83a) x2))))
(let ((?x294 (fp.add roundNearestTiesToEven ?x291 (fp.mul roundNearestTiesToEven (fp #b1 #b10000000100 #x0c42318a47f1f) x3))))
(let ((?x297 (fp.add roundNearestTiesToEven ?x294 (fp.mul roundNearestTiesToEven (fp #b0 #b10000000100 #x8958474c5f455) x4))))
(let ((?x300 (fp.add roundNearestTiesToEven ?x297 (fp.mul roundNearestTiesToEven (fp #b0 #b10000000010 #x3799da8483041) x5))))
(let ((?x303 (fp.add roundNearestTiesToEven ?x300 (fp.mul roundNearestTiesToEven (fp #b0 #b10000000011 #x0ade087ad447f) x6))))
(let ((?x306 (fp.add roundNearestTiesToEven ?x303 (fp.mul roundNearestTiesToEven (fp #b0 #b10000000101 #x08c70ec2fd96f) x7))))
(let ((?x309 (fp.add roundNearestTiesToEven ?x306 (fp.mul roundNearestTiesToEven (fp #b1 #b10000000101 #x82d07fd82d6df) x8))))
(fp.leq ?x309 (fp #b0 #b10000000101 #x773e573df6b33)))))))))))
(check-sat)
(exit)
